15 40
25
3 11 4 13
3 13 9 0
2 9 2 25
2 7 13 16
3 9 12 7
3 7 12 0
2 11 0 12
2 13 2 12
4 11 0 0
4 13 4 27
5 3 7 13
2 11 0 23
2 2 7 21
3 11 8 27
3 2 8 38
4 5 7 16
4 6 0 34
2 12 11 16
2 1 7 23
5 3 4 24
5 13 4 0
4 12 11 28
4 1 0 11
2 5 13 23
2 6 9 21
% time elapsed: 150.46 s
% time elapsed: 150.46 s
%%%mzn-stat: initTime=0.000373
%%%mzn-stat: solveTime=150.369
%%%mzn-stat: solutions=69
%%%mzn-stat: variables=51
%%%mzn-stat: propagators=30
%%%mzn-stat: propagations=61656200
%%%mzn-stat: nodes=21330272
%%%mzn-stat: failures=10659668
%%%mzn-stat: restarts=530
%%%mzn-stat: peakDepth=99
%%%mzn-stat-end
